WARNING: for repeatability, setting FPU to use double precision
============================[ Problem Statistics ]=============================
|                                                                             |
|  Number of variables:            50                                         |
|  Number of clauses:             218                                         |
|  Parse time:                   0.00 s                                       |
|                                                                             |
============================[ Search Statistics ]==============================
| Conflicts |          ORIGINAL         |          LEARNT          | Progress |
|           |    Vars  Clauses Literals |    Limit  Clauses Lit/Cl |          |
===============================================================================
===============================================================================
restarts              : 1
conflicts             : 60             (207612 /sec)
decisions             : 81             (0.00 % random) (280277 /sec)
propagations          : 922            (3190311 /sec)
conflict literals     : 216            (14.62 % deleted)
Memory used           : 20.00 MB
CPU time              : 0.000289 s

UNSATISFIABLE
